(set-info :smt-lib-version 2.6)
(set-logic QF_NRA)
(set-info :source |
Generated by a component of the Ultimate program analysis framework [1] 
that implements a constraint-based synthesis of invariants [2].

This SMT script belongs to a set of SMT scripts that was generated by 
applying Ultimate to benchmarks [3] from the SV-COMP 2017 [4,5].

This script might _not_ contain all SMT commands that are used by 
Ultimate . In order to satisfy the restrictions of
the SMT-COMP we have to drop e.g., the commands for getting
values (resp. models), unsatisfiable cores and interpolants.

2017-05-01, Matthias Heizmann (heizmann@informatik.uni-freiburg.de)


[1] https://ultimate.informatik.uni-freiburg.de/
[2] Michael Colon, Sriram Sankaranarayanan, Henny Sipma: Linear Invariant 
Generation Using Non-linear Constraint Solving. CAV 2003: 420-432
[3] https://github.com/sosy-lab/sv-benchmarks
[4] Dirk Beyer: Software Verification with Validation of Results - 
(Report on SV-COMP 2017). TACAS (2) 2017: 331-349
[5] https://sv-comp.sosy-lab.org/2017/
|)
(set-info :license "https://creativecommons.org/licenses/by/4.0/")
(set-info :category "industrial")
(set-info :status unknown)
(declare-fun lp_0_0c () Real)
(declare-fun lp_0_0_ULTIMATE.start___VERIFIER_assert_~cond () Real)
(declare-fun lp_0_0_ULTIMATE.start_main_~x~4 () Real)
(declare-fun lp_0_0_ULTIMATE.start_main_~y~4 () Real)
(declare-fun lp_0_1c () Real)
(declare-fun lp_0_1_ULTIMATE.start___VERIFIER_assert_~cond () Real)
(declare-fun lp_0_1_ULTIMATE.start_main_~x~4 () Real)
(declare-fun lp_0_1_ULTIMATE.start_main_~y~4 () Real)
(declare-fun motzkin_708_0 () Real)
(declare-fun motzkin_708_1 () Real)
(declare-fun motzkin_708_2 () Real)
(declare-fun motzkin_708_3 () Real)
(declare-fun motzkin_708_4 () Real)
(declare-fun motzkin_708_5 () Real)
(declare-fun motzkin_708_6 () Real)
(declare-fun motzkin_708_7 () Real)
(declare-fun motzkin_708_8 () Real)
(declare-fun motzkin_709_0 () Real)
(declare-fun motzkin_709_1 () Real)
(declare-fun motzkin_709_2 () Real)
(declare-fun motzkin_709_3 () Real)
(declare-fun motzkin_709_4 () Real)
(declare-fun motzkin_709_5 () Real)
(declare-fun motzkin_709_6 () Real)
(declare-fun motzkin_709_7 () Real)
(declare-fun motzkin_709_8 () Real)
(assert (and (>= motzkin_708_0 0.0) (>= motzkin_708_1 0.0) (>= motzkin_708_2 0.0) (>= motzkin_708_3 0.0) (>= motzkin_708_4 0.0) (>= motzkin_708_5 0.0) (>= motzkin_708_6 0.0) (>= motzkin_708_7 0.0) (>= motzkin_708_8 0.0) (= (+ (* motzkin_708_0 (- 1.0)) motzkin_708_7 (* motzkin_708_8 (+ (* (- 1.0) lp_0_0_ULTIMATE.start___VERIFIER_assert_~cond) 0.0))) 0.0) (= (+ motzkin_708_0 motzkin_708_1 (* motzkin_708_2 (- 1.0)) (* motzkin_708_7 (- 1.0))) 0.0) (= (+ (* motzkin_708_3 (- 1.0)) motzkin_708_4 (* motzkin_708_8 (+ (* (- 1.0) lp_0_0_ULTIMATE.start_main_~y~4) 0.0))) 0.0) (= (+ motzkin_708_3 (* motzkin_708_4 (- 1.0)) motzkin_708_5 (* motzkin_708_6 (- 1.0)) (* motzkin_708_8 (+ (* (- 1.0) lp_0_0_ULTIMATE.start_main_~x~4) 0.0))) 0.0) (<= (+ (* motzkin_708_1 (- 1.0)) motzkin_708_2 (* motzkin_708_3 4.0) (* motzkin_708_4 (- 4.0)) (* motzkin_708_5 (- 4.0)) (* motzkin_708_6 4.0) (* motzkin_708_8 (+ (* (- 1.0) lp_0_0c) 0.0))) 0.0) (or (< (+ (* motzkin_708_1 (- 1.0)) motzkin_708_2 (* motzkin_708_3 4.0) (* motzkin_708_4 (- 4.0)) (* motzkin_708_5 (- 4.0)) (* motzkin_708_6 4.0)) 0.0) (> motzkin_708_8 0.0)) (>= motzkin_709_0 0.0) (>= motzkin_709_1 0.0) (>= motzkin_709_2 0.0) (>= motzkin_709_3 0.0) (>= motzkin_709_4 0.0) (>= motzkin_709_5 0.0) (>= motzkin_709_6 0.0) (>= motzkin_709_7 0.0) (>= motzkin_709_8 0.0) (= (+ (* motzkin_709_0 (- 1.0)) motzkin_709_7 (* motzkin_709_8 (+ (* (- 1.0) lp_0_1_ULTIMATE.start___VERIFIER_assert_~cond) 0.0))) 0.0) (= (+ motzkin_709_0 motzkin_709_1 (* motzkin_709_2 (- 1.0)) (* motzkin_709_7 (- 1.0))) 0.0) (= (+ (* motzkin_709_3 (- 1.0)) motzkin_709_4 (* motzkin_709_8 (+ (* (- 1.0) lp_0_1_ULTIMATE.start_main_~y~4) 0.0))) 0.0) (= (+ motzkin_709_3 (* motzkin_709_4 (- 1.0)) motzkin_709_5 (* motzkin_709_6 (- 1.0)) (* motzkin_709_8 (+ (* (- 1.0) lp_0_1_ULTIMATE.start_main_~x~4) 0.0))) 0.0) (<= (+ (* motzkin_709_1 (- 1.0)) motzkin_709_2 (* motzkin_709_3 4.0) (* motzkin_709_4 (- 4.0)) (* motzkin_709_5 (- 4.0)) (* motzkin_709_6 4.0) (* motzkin_709_8 (+ (* (- 1.0) lp_0_1c) 0.0))) 0.0) (or (< (+ (* motzkin_709_1 (- 1.0)) motzkin_709_2 (* motzkin_709_3 4.0) (* motzkin_709_4 (- 4.0)) (* motzkin_709_5 (- 4.0)) (* motzkin_709_6 4.0)) 0.0) (> motzkin_709_8 0.0))))
(declare-fun motzkin_710_0 () Real)
(declare-fun motzkin_710_1 () Real)
(declare-fun motzkin_710_2 () Real)
(declare-fun motzkin_710_3 () Real)
(declare-fun motzkin_710_4 () Real)
(declare-fun motzkin_710_5 () Real)
(declare-fun motzkin_710_6 () Real)
(declare-fun motzkin_710_7 () Real)
(declare-fun motzkin_710_8 () Real)
(declare-fun motzkin_710_9 () Real)
(declare-fun motzkin_710_10 () Real)
(declare-fun motzkin_710_11 () Real)
(declare-fun motzkin_710_12 () Real)
(declare-fun motzkin_710_13 () Real)
(declare-fun motzkin_711_0 () Real)
(declare-fun motzkin_711_1 () Real)
(declare-fun motzkin_711_2 () Real)
(declare-fun motzkin_711_3 () Real)
(declare-fun motzkin_711_4 () Real)
(declare-fun motzkin_711_5 () Real)
(declare-fun motzkin_711_6 () Real)
(declare-fun motzkin_711_7 () Real)
(declare-fun motzkin_711_8 () Real)
(declare-fun motzkin_711_9 () Real)
(declare-fun motzkin_711_10 () Real)
(declare-fun motzkin_711_11 () Real)
(declare-fun motzkin_711_12 () Real)
(declare-fun motzkin_711_13 () Real)
(declare-fun motzkin_712_0 () Real)
(declare-fun motzkin_712_1 () Real)
(declare-fun motzkin_712_2 () Real)
(declare-fun motzkin_712_3 () Real)
(declare-fun motzkin_712_4 () Real)
(declare-fun motzkin_712_5 () Real)
(declare-fun motzkin_712_6 () Real)
(declare-fun motzkin_712_7 () Real)
(declare-fun motzkin_712_8 () Real)
(declare-fun motzkin_712_9 () Real)
(declare-fun motzkin_712_10 () Real)
(declare-fun motzkin_712_11 () Real)
(declare-fun motzkin_712_12 () Real)
(declare-fun motzkin_712_13 () Real)
(declare-fun motzkin_713_0 () Real)
(declare-fun motzkin_713_1 () Real)
(declare-fun motzkin_713_2 () Real)
(declare-fun motzkin_713_3 () Real)
(declare-fun motzkin_713_4 () Real)
(declare-fun motzkin_713_5 () Real)
(declare-fun motzkin_713_6 () Real)
(declare-fun motzkin_713_7 () Real)
(declare-fun motzkin_713_8 () Real)
(declare-fun motzkin_713_9 () Real)
(declare-fun motzkin_713_10 () Real)
(declare-fun motzkin_713_11 () Real)
(declare-fun motzkin_713_12 () Real)
(declare-fun motzkin_713_13 () Real)
(declare-fun motzkin_714_0 () Real)
(declare-fun motzkin_714_1 () Real)
(declare-fun motzkin_714_2 () Real)
(declare-fun motzkin_714_3 () Real)
(declare-fun motzkin_714_4 () Real)
(declare-fun motzkin_714_5 () Real)
(declare-fun motzkin_714_6 () Real)
(declare-fun motzkin_714_7 () Real)
(declare-fun motzkin_714_8 () Real)
(declare-fun motzkin_714_9 () Real)
(declare-fun motzkin_714_10 () Real)
(declare-fun motzkin_714_11 () Real)
(declare-fun motzkin_714_12 () Real)
(declare-fun motzkin_714_13 () Real)
(declare-fun motzkin_715_0 () Real)
(declare-fun motzkin_715_1 () Real)
(declare-fun motzkin_715_2 () Real)
(declare-fun motzkin_715_3 () Real)
(declare-fun motzkin_715_4 () Real)
(declare-fun motzkin_715_5 () Real)
(declare-fun motzkin_715_6 () Real)
(declare-fun motzkin_715_7 () Real)
(declare-fun motzkin_715_8 () Real)
(declare-fun motzkin_715_9 () Real)
(declare-fun motzkin_715_10 () Real)
(declare-fun motzkin_715_11 () Real)
(declare-fun motzkin_715_12 () Real)
(declare-fun motzkin_715_13 () Real)
(declare-fun motzkin_716_0 () Real)
(declare-fun motzkin_716_1 () Real)
(declare-fun motzkin_716_2 () Real)
(declare-fun motzkin_716_3 () Real)
(declare-fun motzkin_716_4 () Real)
(declare-fun motzkin_716_5 () Real)
(declare-fun motzkin_716_6 () Real)
(declare-fun motzkin_716_7 () Real)
(declare-fun motzkin_716_8 () Real)
(declare-fun motzkin_716_9 () Real)
(declare-fun motzkin_716_10 () Real)
(declare-fun motzkin_716_11 () Real)
(declare-fun motzkin_716_12 () Real)
(declare-fun motzkin_716_13 () Real)
(declare-fun motzkin_717_0 () Real)
(declare-fun motzkin_717_1 () Real)
(declare-fun motzkin_717_2 () Real)
(declare-fun motzkin_717_3 () Real)
(declare-fun motzkin_717_4 () Real)
(declare-fun motzkin_717_5 () Real)
(declare-fun motzkin_717_6 () Real)
(declare-fun motzkin_717_7 () Real)
(declare-fun motzkin_717_8 () Real)
(declare-fun motzkin_717_9 () Real)
(declare-fun motzkin_717_10 () Real)
(declare-fun motzkin_717_11 () Real)
(declare-fun motzkin_717_12 () Real)
(declare-fun motzkin_717_13 () Real)
(declare-fun motzkin_718_0 () Real)
(declare-fun motzkin_718_1 () Real)
(declare-fun motzkin_718_2 () Real)
(declare-fun motzkin_718_3 () Real)
(declare-fun motzkin_718_4 () Real)
(declare-fun motzkin_718_5 () Real)
(declare-fun motzkin_718_6 () Real)
(declare-fun motzkin_718_7 () Real)
(declare-fun motzkin_718_8 () Real)
(declare-fun motzkin_718_9 () Real)
(declare-fun motzkin_718_10 () Real)
(declare-fun motzkin_718_11 () Real)
(declare-fun motzkin_718_12 () Real)
(declare-fun motzkin_718_13 () Real)
(declare-fun motzkin_719_0 () Real)
(declare-fun motzkin_719_1 () Real)
(declare-fun motzkin_719_2 () Real)
(declare-fun motzkin_719_3 () Real)
(declare-fun motzkin_719_4 () Real)
(declare-fun motzkin_719_5 () Real)
(declare-fun motzkin_719_6 () Real)
(declare-fun motzkin_719_7 () Real)
(declare-fun motzkin_719_8 () Real)
(declare-fun motzkin_719_9 () Real)
(declare-fun motzkin_719_10 () Real)
(declare-fun motzkin_719_11 () Real)
(declare-fun motzkin_719_12 () Real)
(declare-fun motzkin_719_13 () Real)
(declare-fun motzkin_720_0 () Real)
(declare-fun motzkin_720_1 () Real)
(declare-fun motzkin_720_2 () Real)
(declare-fun motzkin_720_3 () Real)
(declare-fun motzkin_720_4 () Real)
(declare-fun motzkin_720_5 () Real)
(declare-fun motzkin_720_6 () Real)
(declare-fun motzkin_720_7 () Real)
(declare-fun motzkin_720_8 () Real)
(declare-fun motzkin_720_9 () Real)
(declare-fun motzkin_720_10 () Real)
(declare-fun motzkin_720_11 () Real)
(declare-fun motzkin_720_12 () Real)
(declare-fun motzkin_720_13 () Real)
(declare-fun motzkin_721_0 () Real)
(declare-fun motzkin_721_1 () Real)
(declare-fun motzkin_721_2 () Real)
(declare-fun motzkin_721_3 () Real)
(declare-fun motzkin_721_4 () Real)
(declare-fun motzkin_721_5 () Real)
(declare-fun motzkin_721_6 () Real)
(declare-fun motzkin_721_7 () Real)
(declare-fun motzkin_721_8 () Real)
(declare-fun motzkin_721_9 () Real)
(declare-fun motzkin_721_10 () Real)
(declare-fun motzkin_721_11 () Real)
(declare-fun motzkin_721_12 () Real)
(declare-fun motzkin_721_13 () Real)
(assert (and (>= motzkin_710_0 0.0) (>= motzkin_710_1 0.0) (>= motzkin_710_2 0.0) (>= motzkin_710_3 0.0) (>= motzkin_710_4 0.0) (>= motzkin_710_5 0.0) (>= motzkin_710_6 0.0) (>= motzkin_710_7 0.0) (>= motzkin_710_8 0.0) (>= motzkin_710_9 0.0) (>= motzkin_710_10 0.0) (>= motzkin_710_11 0.0) (>= motzkin_710_12 0.0) (>= motzkin_710_13 0.0) (= (+ motzkin_710_0 (* motzkin_710_5 (- 1.0)) (* motzkin_710_11 (+ (* (- 1.0) lp_0_0_ULTIMATE.start___VERIFIER_assert_~cond) 0.0))) 0.0) (= (+ (* motzkin_710_0 (- 1.0)) motzkin_710_5 motzkin_710_8 (* motzkin_710_9 (- 1.0))) 0.0) (= (+ motzkin_710_1 (* motzkin_710_3 (- 1.0)) (* motzkin_710_4 (- 1.0)) motzkin_710_10 (* motzkin_710_11 (+ (* (- 1.0) lp_0_0_ULTIMATE.start_main_~x~4) 0.0))) 0.0) (= (+ (* motzkin_710_1 (- 1.0)) motzkin_710_3 (* motzkin_710_12 (+ (* 1.0 lp_0_0_ULTIMATE.start_main_~x~4) 0.0)) (* motzkin_710_13 (+ (* 1.0 lp_0_1_ULTIMATE.start_main_~x~4) 0.0))) 0.0) (= (+ (* motzkin_710_1 (- 1.0)) motzkin_710_3 (* motzkin_710_6 (- 1.0)) motzkin_710_7 (* motzkin_710_12 (+ (* 1.0 lp_0_0_ULTIMATE.start_main_~y~4) 0.0)) (* motzkin_710_13 (+ (* 1.0 lp_0_1_ULTIMATE.start_main_~y~4) 0.0))) 0.0) (= (+ motzkin_710_2 (* motzkin_710_12 (+ (* 1.0 lp_0_0_ULTIMATE.start___VERIFIER_assert_~cond) 0.0)) (* motzkin_710_13 (+ (* 1.0 lp_0_1_ULTIMATE.start___VERIFIER_assert_~cond) 0.0))) 0.0) (= (+ motzkin_710_6 (* motzkin_710_7 (- 1.0)) (* motzkin_710_11 (+ (* (- 1.0) lp_0_0_ULTIMATE.start_main_~y~4) 0.0))) 0.0) (<= (+ (* motzkin_710_2 (- 1.0)) (* motzkin_710_4 4294967295.0) (* motzkin_710_6 (- 4.0)) (* motzkin_710_7 4.0) (* motzkin_710_8 (- 1.0)) motzkin_710_9 (* motzkin_710_10 (- 31.0)) (* motzkin_710_11 (+ (* (- 1.0) lp_0_0c) 0.0)) (* motzkin_710_12 (+ (* 1.0 lp_0_0c) 0.0)) (* motzkin_710_13 (+ (* 1.0 lp_0_1c) 0.0))) 0.0) (or (< (+ (* motzkin_710_2 (- 1.0)) (* motzkin_710_4 4294967295.0) (* motzkin_710_6 (- 4.0)) (* motzkin_710_7 4.0) (* motzkin_710_8 (- 1.0)) motzkin_710_9 (* motzkin_710_10 (- 31.0)) (* motzkin_710_12 (+ (* 1.0 lp_0_0c) 0.0)) (* motzkin_710_13 (+ (* 1.0 lp_0_1c) 0.0))) 0.0) (> motzkin_710_11 0.0)) (>= motzkin_711_0 0.0) (>= motzkin_711_1 0.0) (>= motzkin_711_2 0.0) (>= motzkin_711_3 0.0) (>= motzkin_711_4 0.0) (>= motzkin_711_5 0.0) (>= motzkin_711_6 0.0) (>= motzkin_711_7 0.0) (>= motzkin_711_8 0.0) (>= motzkin_711_9 0.0) (>= motzkin_711_10 0.0) (>= motzkin_711_11 0.0) (>= motzkin_711_12 0.0) (>= motzkin_711_13 0.0) (= (+ motzkin_711_0 (* motzkin_711_5 (- 1.0)) (* motzkin_711_11 (+ (* (- 1.0) lp_0_1_ULTIMATE.start___VERIFIER_assert_~cond) 0.0))) 0.0) (= (+ (* motzkin_711_0 (- 1.0)) motzkin_711_5 motzkin_711_8 (* motzkin_711_9 (- 1.0))) 0.0) (= (+ motzkin_711_1 (* motzkin_711_3 (- 1.0)) (* motzkin_711_4 (- 1.0)) motzkin_711_10 (* motzkin_711_11 (+ (* (- 1.0) lp_0_1_ULTIMATE.start_main_~x~4) 0.0))) 0.0) (= (+ (* motzkin_711_1 (- 1.0)) motzkin_711_3 (* motzkin_711_12 (+ (* 1.0 lp_0_0_ULTIMATE.start_main_~x~4) 0.0)) (* motzkin_711_13 (+ (* 1.0 lp_0_1_ULTIMATE.start_main_~x~4) 0.0))) 0.0) (= (+ (* motzkin_711_1 (- 1.0)) motzkin_711_3 (* motzkin_711_6 (- 1.0)) motzkin_711_7 (* motzkin_711_12 (+ (* 1.0 lp_0_0_ULTIMATE.start_main_~y~4) 0.0)) (* motzkin_711_13 (+ (* 1.0 lp_0_1_ULTIMATE.start_main_~y~4) 0.0))) 0.0) (= (+ motzkin_711_2 (* motzkin_711_12 (+ (* 1.0 lp_0_0_ULTIMATE.start___VERIFIER_assert_~cond) 0.0)) (* motzkin_711_13 (+ (* 1.0 lp_0_1_ULTIMATE.start___VERIFIER_assert_~cond) 0.0))) 0.0) (= (+ motzkin_711_6 (* motzkin_711_7 (- 1.0)) (* motzkin_711_11 (+ (* (- 1.0) lp_0_1_ULTIMATE.start_main_~y~4) 0.0))) 0.0) (<= (+ (* motzkin_711_2 (- 1.0)) (* motzkin_711_4 4294967295.0) (* motzkin_711_6 (- 4.0)) (* motzkin_711_7 4.0) (* motzkin_711_8 (- 1.0)) motzkin_711_9 (* motzkin_711_10 (- 31.0)) (* motzkin_711_11 (+ (* (- 1.0) lp_0_1c) 0.0)) (* motzkin_711_12 (+ (* 1.0 lp_0_0c) 0.0)) (* motzkin_711_13 (+ (* 1.0 lp_0_1c) 0.0))) 0.0) (or (< (+ (* motzkin_711_2 (- 1.0)) (* motzkin_711_4 4294967295.0) (* motzkin_711_6 (- 4.0)) (* motzkin_711_7 4.0) (* motzkin_711_8 (- 1.0)) motzkin_711_9 (* motzkin_711_10 (- 31.0)) (* motzkin_711_12 (+ (* 1.0 lp_0_0c) 0.0)) (* motzkin_711_13 (+ (* 1.0 lp_0_1c) 0.0))) 0.0) (> motzkin_711_11 0.0)) (>= motzkin_712_0 0.0) (>= motzkin_712_1 0.0) (>= motzkin_712_2 0.0) (>= motzkin_712_3 0.0) (>= motzkin_712_4 0.0) (>= motzkin_712_5 0.0) (>= motzkin_712_6 0.0) (>= motzkin_712_7 0.0) (>= motzkin_712_8 0.0) (>= motzkin_712_9 0.0) (>= motzkin_712_10 0.0) (>= motzkin_712_11 0.0) (>= motzkin_712_12 0.0) (>= motzkin_712_13 0.0) (= (+ motzkin_712_0 (* motzkin_712_4 (- 1.0)) (* motzkin_712_11 (+ (* (- 1.0) lp_0_0_ULTIMATE.start___VERIFIER_assert_~cond) 0.0))) 0.0) (= (+ (* motzkin_712_0 (- 1.0)) motzkin_712_4 motzkin_712_8 (* motzkin_712_9 (- 1.0))) 0.0) (= (+ motzkin_712_1 (* motzkin_712_2 (- 1.0)) (* motzkin_712_3 (- 1.0)) motzkin_712_10 (* motzkin_712_11 (+ (* (- 1.0) lp_0_0_ULTIMATE.start_main_~x~4) 0.0))) 0.0) (= (+ (* motzkin_712_1 (- 1.0)) motzkin_712_2 (* motzkin_712_12 (+ (* 1.0 lp_0_0_ULTIMATE.start_main_~x~4) 0.0)) (* motzkin_712_13 (+ (* 1.0 lp_0_1_ULTIMATE.start_main_~x~4) 0.0))) 0.0) (= (+ (* motzkin_712_1 (- 1.0)) motzkin_712_2 (* motzkin_712_6 (- 1.0)) motzkin_712_7 (* motzkin_712_12 (+ (* 1.0 lp_0_0_ULTIMATE.start_main_~y~4) 0.0)) (* motzkin_712_13 (+ (* 1.0 lp_0_1_ULTIMATE.start_main_~y~4) 0.0))) 0.0) (= (+ (* motzkin_712_5 (- 1.0)) (* motzkin_712_12 (+ (* 1.0 lp_0_0_ULTIMATE.start___VERIFIER_assert_~cond) 0.0)) (* motzkin_712_13 (+ (* 1.0 lp_0_1_ULTIMATE.start___VERIFIER_assert_~cond) 0.0))) 0.0) (= (+ motzkin_712_6 (* motzkin_712_7 (- 1.0)) (* motzkin_712_11 (+ (* (- 1.0) lp_0_0_ULTIMATE.start_main_~y~4) 0.0))) 0.0) (<= (+ (* motzkin_712_3 4294967295.0) (* motzkin_712_5 (- 1.0)) (* motzkin_712_6 (- 4.0)) (* motzkin_712_7 4.0) (* motzkin_712_8 (- 1.0)) motzkin_712_9 (* motzkin_712_10 (- 31.0)) (* motzkin_712_11 (+ (* (- 1.0) lp_0_0c) 0.0)) (* motzkin_712_12 (+ (* 1.0 lp_0_0c) 0.0)) (* motzkin_712_13 (+ (* 1.0 lp_0_1c) 0.0))) 0.0) (or (< (+ (* motzkin_712_3 4294967295.0) (* motzkin_712_5 (- 1.0)) (* motzkin_712_6 (- 4.0)) (* motzkin_712_7 4.0) (* motzkin_712_8 (- 1.0)) motzkin_712_9 (* motzkin_712_10 (- 31.0)) (* motzkin_712_12 (+ (* 1.0 lp_0_0c) 0.0)) (* motzkin_712_13 (+ (* 1.0 lp_0_1c) 0.0))) 0.0) (> motzkin_712_11 0.0)) (>= motzkin_713_0 0.0) (>= motzkin_713_1 0.0) (>= motzkin_713_2 0.0) (>= motzkin_713_3 0.0) (>= motzkin_713_4 0.0) (>= motzkin_713_5 0.0) (>= motzkin_713_6 0.0) (>= motzkin_713_7 0.0) (>= motzkin_713_8 0.0) (>= motzkin_713_9 0.0) (>= motzkin_713_10 0.0) (>= motzkin_713_11 0.0) (>= motzkin_713_12 0.0) (>= motzkin_713_13 0.0) (= (+ motzkin_713_0 (* motzkin_713_4 (- 1.0)) (* motzkin_713_11 (+ (* (- 1.0) lp_0_1_ULTIMATE.start___VERIFIER_assert_~cond) 0.0))) 0.0) (= (+ (* motzkin_713_0 (- 1.0)) motzkin_713_4 motzkin_713_8 (* motzkin_713_9 (- 1.0))) 0.0) (= (+ motzkin_713_1 (* motzkin_713_2 (- 1.0)) (* motzkin_713_3 (- 1.0)) motzkin_713_10 (* motzkin_713_11 (+ (* (- 1.0) lp_0_1_ULTIMATE.start_main_~x~4) 0.0))) 0.0) (= (+ (* motzkin_713_1 (- 1.0)) motzkin_713_2 (* motzkin_713_12 (+ (* 1.0 lp_0_0_ULTIMATE.start_main_~x~4) 0.0)) (* motzkin_713_13 (+ (* 1.0 lp_0_1_ULTIMATE.start_main_~x~4) 0.0))) 0.0) (= (+ (* motzkin_713_1 (- 1.0)) motzkin_713_2 (* motzkin_713_6 (- 1.0)) motzkin_713_7 (* motzkin_713_12 (+ (* 1.0 lp_0_0_ULTIMATE.start_main_~y~4) 0.0)) (* motzkin_713_13 (+ (* 1.0 lp_0_1_ULTIMATE.start_main_~y~4) 0.0))) 0.0) (= (+ (* motzkin_713_5 (- 1.0)) (* motzkin_713_12 (+ (* 1.0 lp_0_0_ULTIMATE.start___VERIFIER_assert_~cond) 0.0)) (* motzkin_713_13 (+ (* 1.0 lp_0_1_ULTIMATE.start___VERIFIER_assert_~cond) 0.0))) 0.0) (= (+ motzkin_713_6 (* motzkin_713_7 (- 1.0)) (* motzkin_713_11 (+ (* (- 1.0) lp_0_1_ULTIMATE.start_main_~y~4) 0.0))) 0.0) (<= (+ (* motzkin_713_3 4294967295.0) (* motzkin_713_5 (- 1.0)) (* motzkin_713_6 (- 4.0)) (* motzkin_713_7 4.0) (* motzkin_713_8 (- 1.0)) motzkin_713_9 (* motzkin_713_10 (- 31.0)) (* motzkin_713_11 (+ (* (- 1.0) lp_0_1c) 0.0)) (* motzkin_713_12 (+ (* 1.0 lp_0_0c) 0.0)) (* motzkin_713_13 (+ (* 1.0 lp_0_1c) 0.0))) 0.0) (or (< (+ (* motzkin_713_3 4294967295.0) (* motzkin_713_5 (- 1.0)) (* motzkin_713_6 (- 4.0)) (* motzkin_713_7 4.0) (* motzkin_713_8 (- 1.0)) motzkin_713_9 (* motzkin_713_10 (- 31.0)) (* motzkin_713_12 (+ (* 1.0 lp_0_0c) 0.0)) (* motzkin_713_13 (+ (* 1.0 lp_0_1c) 0.0))) 0.0) (> motzkin_713_11 0.0)) (>= motzkin_714_0 0.0) (>= motzkin_714_1 0.0) (>= motzkin_714_2 0.0) (>= motzkin_714_3 0.0) (>= motzkin_714_4 0.0) (>= motzkin_714_5 0.0) (>= motzkin_714_6 0.0) (>= motzkin_714_7 0.0) (>= motzkin_714_8 0.0) (>= motzkin_714_9 0.0) (>= motzkin_714_10 0.0) (>= motzkin_714_11 0.0) (>= motzkin_714_12 0.0) (>= motzkin_714_13 0.0) (= (+ motzkin_714_0 (* motzkin_714_4 (- 1.0)) (* motzkin_714_11 (+ (* (- 1.0) lp_0_0_ULTIMATE.start___VERIFIER_assert_~cond) 0.0))) 0.0) (= (+ (* motzkin_714_0 (- 1.0)) motzkin_714_4 motzkin_714_8 (* motzkin_714_9 (- 1.0))) 0.0) (= (+ (* motzkin_714_1 (- 1.0)) motzkin_714_2 (* motzkin_714_3 (- 1.0)) motzkin_714_10 (* motzkin_714_11 (+ (* (- 1.0) lp_0_0_ULTIMATE.start_main_~x~4) 0.0))) 0.0) (= (+ (* motzkin_714_2 (- 1.0)) motzkin_714_3 (* motzkin_714_12 (+ (* 1.0 lp_0_0_ULTIMATE.start_main_~x~4) 0.0)) (* motzkin_714_13 (+ (* 1.0 lp_0_1_ULTIMATE.start_main_~x~4) 0.0))) 0.0) (= (+ (* motzkin_714_2 (- 1.0)) motzkin_714_3 (* motzkin_714_6 (- 1.0)) motzkin_714_7 (* motzkin_714_12 (+ (* 1.0 lp_0_0_ULTIMATE.start_main_~y~4) 0.0)) (* motzkin_714_13 (+ (* 1.0 lp_0_1_ULTIMATE.start_main_~y~4) 0.0))) 0.0) (= (+ (* motzkin_714_5 (- 1.0)) (* motzkin_714_12 (+ (* 1.0 lp_0_0_ULTIMATE.start___VERIFIER_assert_~cond) 0.0)) (* motzkin_714_13 (+ (* 1.0 lp_0_1_ULTIMATE.start___VERIFIER_assert_~cond) 0.0))) 0.0) (= (+ motzkin_714_6 (* motzkin_714_7 (- 1.0)) (* motzkin_714_11 (+ (* (- 1.0) lp_0_0_ULTIMATE.start_main_~y~4) 0.0))) 0.0) (<= (+ (* motzkin_714_1 29.0) (* motzkin_714_5 (- 1.0)) (* motzkin_714_6 (- 4.0)) (* motzkin_714_7 4.0) (* motzkin_714_8 (- 1.0)) motzkin_714_9 (* motzkin_714_11 (+ (* (- 1.0) lp_0_0c) 0.0)) (* motzkin_714_12 (+ (* 1.0 lp_0_0c) 0.0)) (* motzkin_714_13 (+ (* 1.0 lp_0_1c) 0.0))) 0.0) (or (< (+ (* motzkin_714_1 29.0) (* motzkin_714_5 (- 1.0)) (* motzkin_714_6 (- 4.0)) (* motzkin_714_7 4.0) (* motzkin_714_8 (- 1.0)) motzkin_714_9 (* motzkin_714_12 (+ (* 1.0 lp_0_0c) 0.0)) (* motzkin_714_13 (+ (* 1.0 lp_0_1c) 0.0))) 0.0) (> motzkin_714_11 0.0)) (>= motzkin_715_0 0.0) (>= motzkin_715_1 0.0) (>= motzkin_715_2 0.0) (>= motzkin_715_3 0.0) (>= motzkin_715_4 0.0) (>= motzkin_715_5 0.0) (>= motzkin_715_6 0.0) (>= motzkin_715_7 0.0) (>= motzkin_715_8 0.0) (>= motzkin_715_9 0.0) (>= motzkin_715_10 0.0) (>= motzkin_715_11 0.0) (>= motzkin_715_12 0.0) (>= motzkin_715_13 0.0) (= (+ motzkin_715_0 (* motzkin_715_4 (- 1.0)) (* motzkin_715_11 (+ (* (- 1.0) lp_0_1_ULTIMATE.start___VERIFIER_assert_~cond) 0.0))) 0.0) (= (+ (* motzkin_715_0 (- 1.0)) motzkin_715_4 motzkin_715_8 (* motzkin_715_9 (- 1.0))) 0.0) (= (+ (* motzkin_715_1 (- 1.0)) motzkin_715_2 (* motzkin_715_3 (- 1.0)) motzkin_715_10 (* motzkin_715_11 (+ (* (- 1.0) lp_0_1_ULTIMATE.start_main_~x~4) 0.0))) 0.0) (= (+ (* motzkin_715_2 (- 1.0)) motzkin_715_3 (* motzkin_715_12 (+ (* 1.0 lp_0_0_ULTIMATE.start_main_~x~4) 0.0)) (* motzkin_715_13 (+ (* 1.0 lp_0_1_ULTIMATE.start_main_~x~4) 0.0))) 0.0) (= (+ (* motzkin_715_2 (- 1.0)) motzkin_715_3 (* motzkin_715_6 (- 1.0)) motzkin_715_7 (* motzkin_715_12 (+ (* 1.0 lp_0_0_ULTIMATE.start_main_~y~4) 0.0)) (* motzkin_715_13 (+ (* 1.0 lp_0_1_ULTIMATE.start_main_~y~4) 0.0))) 0.0) (= (+ (* motzkin_715_5 (- 1.0)) (* motzkin_715_12 (+ (* 1.0 lp_0_0_ULTIMATE.start___VERIFIER_assert_~cond) 0.0)) (* motzkin_715_13 (+ (* 1.0 lp_0_1_ULTIMATE.start___VERIFIER_assert_~cond) 0.0))) 0.0) (= (+ motzkin_715_6 (* motzkin_715_7 (- 1.0)) (* motzkin_715_11 (+ (* (- 1.0) lp_0_1_ULTIMATE.start_main_~y~4) 0.0))) 0.0) (<= (+ (* motzkin_715_1 29.0) (* motzkin_715_5 (- 1.0)) (* motzkin_715_6 (- 4.0)) (* motzkin_715_7 4.0) (* motzkin_715_8 (- 1.0)) motzkin_715_9 (* motzkin_715_11 (+ (* (- 1.0) lp_0_1c) 0.0)) (* motzkin_715_12 (+ (* 1.0 lp_0_0c) 0.0)) (* motzkin_715_13 (+ (* 1.0 lp_0_1c) 0.0))) 0.0) (or (< (+ (* motzkin_715_1 29.0) (* motzkin_715_5 (- 1.0)) (* motzkin_715_6 (- 4.0)) (* motzkin_715_7 4.0) (* motzkin_715_8 (- 1.0)) motzkin_715_9 (* motzkin_715_12 (+ (* 1.0 lp_0_0c) 0.0)) (* motzkin_715_13 (+ (* 1.0 lp_0_1c) 0.0))) 0.0) (> motzkin_715_11 0.0)) (>= motzkin_716_0 0.0) (>= motzkin_716_1 0.0) (>= motzkin_716_2 0.0) (>= motzkin_716_3 0.0) (>= motzkin_716_4 0.0) (>= motzkin_716_5 0.0) (>= motzkin_716_6 0.0) (>= motzkin_716_7 0.0) (>= motzkin_716_8 0.0) (>= motzkin_716_9 0.0) (>= motzkin_716_10 0.0) (>= motzkin_716_11 0.0) (>= motzkin_716_12 0.0) (>= motzkin_716_13 0.0) (= (+ motzkin_716_0 (* motzkin_716_6 (- 1.0)) (* motzkin_716_11 (+ (* (- 1.0) lp_0_0_ULTIMATE.start___VERIFIER_assert_~cond) 0.0))) 0.0) (= (+ (* motzkin_716_0 (- 1.0)) (* motzkin_716_1 (- 1.0)) motzkin_716_2 motzkin_716_6) 0.0) (= (+ motzkin_716_3 (* motzkin_716_5 (- 1.0)) motzkin_716_7 (* motzkin_716_8 (- 1.0)) (* motzkin_716_11 (+ (* (- 1.0) lp_0_0_ULTIMATE.start_main_~x~4) 0.0))) 0.0) (= (+ (* motzkin_716_3 (- 1.0)) motzkin_716_5 (* motzkin_716_12 (+ (* 1.0 lp_0_0_ULTIMATE.start_main_~x~4) 0.0)) (* motzkin_716_13 (+ (* 1.0 lp_0_1_ULTIMATE.start_main_~x~4) 0.0))) 0.0) (= (+ (* motzkin_716_3 (- 1.0)) motzkin_716_5 (* motzkin_716_9 (- 1.0)) motzkin_716_10 (* motzkin_716_12 (+ (* 1.0 lp_0_0_ULTIMATE.start_main_~y~4) 0.0)) (* motzkin_716_13 (+ (* 1.0 lp_0_1_ULTIMATE.start_main_~y~4) 0.0))) 0.0) (= (+ motzkin_716_4 (* motzkin_716_12 (+ (* 1.0 lp_0_0_ULTIMATE.start___VERIFIER_assert_~cond) 0.0)) (* motzkin_716_13 (+ (* 1.0 lp_0_1_ULTIMATE.start___VERIFIER_assert_~cond) 0.0))) 0.0) (= (+ motzkin_716_9 (* motzkin_716_10 (- 1.0)) (* motzkin_716_11 (+ (* (- 1.0) lp_0_0_ULTIMATE.start_main_~y~4) 0.0))) 0.0) (<= (+ (* motzkin_716_4 (- 1.0)) (* motzkin_716_7 (- 4294967326.0)) (* motzkin_716_8 4294967326.0) (* motzkin_716_9 (- 4.0)) (* motzkin_716_10 4.0) (* motzkin_716_11 (+ (* (- 1.0) lp_0_0c) 0.0)) (* motzkin_716_12 (+ (* 1.0 lp_0_0c) 0.0)) (* motzkin_716_13 (+ (* 1.0 lp_0_1c) 0.0))) 0.0) (or (< (+ (* motzkin_716_4 (- 1.0)) (* motzkin_716_7 (- 4294967326.0)) (* motzkin_716_8 4294967326.0) (* motzkin_716_9 (- 4.0)) (* motzkin_716_10 4.0) (* motzkin_716_12 (+ (* 1.0 lp_0_0c) 0.0)) (* motzkin_716_13 (+ (* 1.0 lp_0_1c) 0.0))) 0.0) (> motzkin_716_11 0.0)) (>= motzkin_717_0 0.0) (>= motzkin_717_1 0.0) (>= motzkin_717_2 0.0) (>= motzkin_717_3 0.0) (>= motzkin_717_4 0.0) (>= motzkin_717_5 0.0) (>= motzkin_717_6 0.0) (>= motzkin_717_7 0.0) (>= motzkin_717_8 0.0) (>= motzkin_717_9 0.0) (>= motzkin_717_10 0.0) (>= motzkin_717_11 0.0) (>= motzkin_717_12 0.0) (>= motzkin_717_13 0.0) (= (+ motzkin_717_0 (* motzkin_717_6 (- 1.0)) (* motzkin_717_11 (+ (* (- 1.0) lp_0_1_ULTIMATE.start___VERIFIER_assert_~cond) 0.0))) 0.0) (= (+ (* motzkin_717_0 (- 1.0)) (* motzkin_717_1 (- 1.0)) motzkin_717_2 motzkin_717_6) 0.0) (= (+ motzkin_717_3 (* motzkin_717_5 (- 1.0)) motzkin_717_7 (* motzkin_717_8 (- 1.0)) (* motzkin_717_11 (+ (* (- 1.0) lp_0_1_ULTIMATE.start_main_~x~4) 0.0))) 0.0) (= (+ (* motzkin_717_3 (- 1.0)) motzkin_717_5 (* motzkin_717_12 (+ (* 1.0 lp_0_0_ULTIMATE.start_main_~x~4) 0.0)) (* motzkin_717_13 (+ (* 1.0 lp_0_1_ULTIMATE.start_main_~x~4) 0.0))) 0.0) (= (+ (* motzkin_717_3 (- 1.0)) motzkin_717_5 (* motzkin_717_9 (- 1.0)) motzkin_717_10 (* motzkin_717_12 (+ (* 1.0 lp_0_0_ULTIMATE.start_main_~y~4) 0.0)) (* motzkin_717_13 (+ (* 1.0 lp_0_1_ULTIMATE.start_main_~y~4) 0.0))) 0.0) (= (+ motzkin_717_4 (* motzkin_717_12 (+ (* 1.0 lp_0_0_ULTIMATE.start___VERIFIER_assert_~cond) 0.0)) (* motzkin_717_13 (+ (* 1.0 lp_0_1_ULTIMATE.start___VERIFIER_assert_~cond) 0.0))) 0.0) (= (+ motzkin_717_9 (* motzkin_717_10 (- 1.0)) (* motzkin_717_11 (+ (* (- 1.0) lp_0_1_ULTIMATE.start_main_~y~4) 0.0))) 0.0) (<= (+ (* motzkin_717_4 (- 1.0)) (* motzkin_717_7 (- 4294967326.0)) (* motzkin_717_8 4294967326.0) (* motzkin_717_9 (- 4.0)) (* motzkin_717_10 4.0) (* motzkin_717_11 (+ (* (- 1.0) lp_0_1c) 0.0)) (* motzkin_717_12 (+ (* 1.0 lp_0_0c) 0.0)) (* motzkin_717_13 (+ (* 1.0 lp_0_1c) 0.0))) 0.0) (or (< (+ (* motzkin_717_4 (- 1.0)) (* motzkin_717_7 (- 4294967326.0)) (* motzkin_717_8 4294967326.0) (* motzkin_717_9 (- 4.0)) (* motzkin_717_10 4.0) (* motzkin_717_12 (+ (* 1.0 lp_0_0c) 0.0)) (* motzkin_717_13 (+ (* 1.0 lp_0_1c) 0.0))) 0.0) (> motzkin_717_11 0.0)) (>= motzkin_718_0 0.0) (>= motzkin_718_1 0.0) (>= motzkin_718_2 0.0) (>= motzkin_718_3 0.0) (>= motzkin_718_4 0.0) (>= motzkin_718_5 0.0) (>= motzkin_718_6 0.0) (>= motzkin_718_7 0.0) (>= motzkin_718_8 0.0) (>= motzkin_718_9 0.0) (>= motzkin_718_10 0.0) (>= motzkin_718_11 0.0) (>= motzkin_718_12 0.0) (>= motzkin_718_13 0.0) (= (+ motzkin_718_0 (* motzkin_718_5 (- 1.0)) (* motzkin_718_11 (+ (* (- 1.0) lp_0_0_ULTIMATE.start___VERIFIER_assert_~cond) 0.0))) 0.0) (= (+ (* motzkin_718_0 (- 1.0)) motzkin_718_5 motzkin_718_8 (* motzkin_718_9 (- 1.0))) 0.0) (= (+ (* motzkin_718_1 (- 1.0)) motzkin_718_2 (* motzkin_718_4 (- 1.0)) motzkin_718_10 (* motzkin_718_11 (+ (* (- 1.0) lp_0_0_ULTIMATE.start_main_~x~4) 0.0))) 0.0) (= (+ (* motzkin_718_2 (- 1.0)) motzkin_718_4 (* motzkin_718_12 (+ (* 1.0 lp_0_0_ULTIMATE.start_main_~x~4) 0.0)) (* motzkin_718_13 (+ (* 1.0 lp_0_1_ULTIMATE.start_main_~x~4) 0.0))) 0.0) (= (+ (* motzkin_718_2 (- 1.0)) motzkin_718_4 (* motzkin_718_6 (- 1.0)) motzkin_718_7 (* motzkin_718_12 (+ (* 1.0 lp_0_0_ULTIMATE.start_main_~y~4) 0.0)) (* motzkin_718_13 (+ (* 1.0 lp_0_1_ULTIMATE.start_main_~y~4) 0.0))) 0.0) (= (+ motzkin_718_3 (* motzkin_718_12 (+ (* 1.0 lp_0_0_ULTIMATE.start___VERIFIER_assert_~cond) 0.0)) (* motzkin_718_13 (+ (* 1.0 lp_0_1_ULTIMATE.start___VERIFIER_assert_~cond) 0.0))) 0.0) (= (+ motzkin_718_6 (* motzkin_718_7 (- 1.0)) (* motzkin_718_11 (+ (* (- 1.0) lp_0_0_ULTIMATE.start_main_~y~4) 0.0))) 0.0) (<= (+ (* motzkin_718_1 29.0) (* motzkin_718_3 (- 1.0)) (* motzkin_718_6 (- 4.0)) (* motzkin_718_7 4.0) (* motzkin_718_8 (- 1.0)) motzkin_718_9 (* motzkin_718_11 (+ (* (- 1.0) lp_0_0c) 0.0)) (* motzkin_718_12 (+ (* 1.0 lp_0_0c) 0.0)) (* motzkin_718_13 (+ (* 1.0 lp_0_1c) 0.0))) 0.0) (or (< (+ (* motzkin_718_1 29.0) (* motzkin_718_3 (- 1.0)) (* motzkin_718_6 (- 4.0)) (* motzkin_718_7 4.0) (* motzkin_718_8 (- 1.0)) motzkin_718_9 (* motzkin_718_12 (+ (* 1.0 lp_0_0c) 0.0)) (* motzkin_718_13 (+ (* 1.0 lp_0_1c) 0.0))) 0.0) (> motzkin_718_11 0.0)) (>= motzkin_719_0 0.0) (>= motzkin_719_1 0.0) (>= motzkin_719_2 0.0) (>= motzkin_719_3 0.0) (>= motzkin_719_4 0.0) (>= motzkin_719_5 0.0) (>= motzkin_719_6 0.0) (>= motzkin_719_7 0.0) (>= motzkin_719_8 0.0) (>= motzkin_719_9 0.0) (>= motzkin_719_10 0.0) (>= motzkin_719_11 0.0) (>= motzkin_719_12 0.0) (>= motzkin_719_13 0.0) (= (+ motzkin_719_0 (* motzkin_719_5 (- 1.0)) (* motzkin_719_11 (+ (* (- 1.0) lp_0_1_ULTIMATE.start___VERIFIER_assert_~cond) 0.0))) 0.0) (= (+ (* motzkin_719_0 (- 1.0)) motzkin_719_5 motzkin_719_8 (* motzkin_719_9 (- 1.0))) 0.0) (= (+ (* motzkin_719_1 (- 1.0)) motzkin_719_2 (* motzkin_719_4 (- 1.0)) motzkin_719_10 (* motzkin_719_11 (+ (* (- 1.0) lp_0_1_ULTIMATE.start_main_~x~4) 0.0))) 0.0) (= (+ (* motzkin_719_2 (- 1.0)) motzkin_719_4 (* motzkin_719_12 (+ (* 1.0 lp_0_0_ULTIMATE.start_main_~x~4) 0.0)) (* motzkin_719_13 (+ (* 1.0 lp_0_1_ULTIMATE.start_main_~x~4) 0.0))) 0.0) (= (+ (* motzkin_719_2 (- 1.0)) motzkin_719_4 (* motzkin_719_6 (- 1.0)) motzkin_719_7 (* motzkin_719_12 (+ (* 1.0 lp_0_0_ULTIMATE.start_main_~y~4) 0.0)) (* motzkin_719_13 (+ (* 1.0 lp_0_1_ULTIMATE.start_main_~y~4) 0.0))) 0.0) (= (+ motzkin_719_3 (* motzkin_719_12 (+ (* 1.0 lp_0_0_ULTIMATE.start___VERIFIER_assert_~cond) 0.0)) (* motzkin_719_13 (+ (* 1.0 lp_0_1_ULTIMATE.start___VERIFIER_assert_~cond) 0.0))) 0.0) (= (+ motzkin_719_6 (* motzkin_719_7 (- 1.0)) (* motzkin_719_11 (+ (* (- 1.0) lp_0_1_ULTIMATE.start_main_~y~4) 0.0))) 0.0) (<= (+ (* motzkin_719_1 29.0) (* motzkin_719_3 (- 1.0)) (* motzkin_719_6 (- 4.0)) (* motzkin_719_7 4.0) (* motzkin_719_8 (- 1.0)) motzkin_719_9 (* motzkin_719_11 (+ (* (- 1.0) lp_0_1c) 0.0)) (* motzkin_719_12 (+ (* 1.0 lp_0_0c) 0.0)) (* motzkin_719_13 (+ (* 1.0 lp_0_1c) 0.0))) 0.0) (or (< (+ (* motzkin_719_1 29.0) (* motzkin_719_3 (- 1.0)) (* motzkin_719_6 (- 4.0)) (* motzkin_719_7 4.0) (* motzkin_719_8 (- 1.0)) motzkin_719_9 (* motzkin_719_12 (+ (* 1.0 lp_0_0c) 0.0)) (* motzkin_719_13 (+ (* 1.0 lp_0_1c) 0.0))) 0.0) (> motzkin_719_11 0.0)) (>= motzkin_720_0 0.0) (>= motzkin_720_1 0.0) (>= motzkin_720_2 0.0) (>= motzkin_720_3 0.0) (>= motzkin_720_4 0.0) (>= motzkin_720_5 0.0) (>= motzkin_720_6 0.0) (>= motzkin_720_7 0.0) (>= motzkin_720_8 0.0) (>= motzkin_720_9 0.0) (>= motzkin_720_10 0.0) (>= motzkin_720_11 0.0) (>= motzkin_720_12 0.0) (>= motzkin_720_13 0.0) (= (+ motzkin_720_0 (* motzkin_720_5 (- 1.0)) (* motzkin_720_11 (+ (* (- 1.0) lp_0_0_ULTIMATE.start___VERIFIER_assert_~cond) 0.0))) 0.0) (= (+ (* motzkin_720_0 (- 1.0)) (* motzkin_720_1 (- 1.0)) motzkin_720_2 motzkin_720_5) 0.0) (= (+ motzkin_720_3 (* motzkin_720_4 (- 1.0)) motzkin_720_7 (* motzkin_720_8 (- 1.0)) (* motzkin_720_11 (+ (* (- 1.0) lp_0_0_ULTIMATE.start_main_~x~4) 0.0))) 0.0) (= (+ (* motzkin_720_3 (- 1.0)) motzkin_720_4 (* motzkin_720_12 (+ (* 1.0 lp_0_0_ULTIMATE.start_main_~x~4) 0.0)) (* motzkin_720_13 (+ (* 1.0 lp_0_1_ULTIMATE.start_main_~x~4) 0.0))) 0.0) (= (+ (* motzkin_720_3 (- 1.0)) motzkin_720_4 (* motzkin_720_9 (- 1.0)) motzkin_720_10 (* motzkin_720_12 (+ (* 1.0 lp_0_0_ULTIMATE.start_main_~y~4) 0.0)) (* motzkin_720_13 (+ (* 1.0 lp_0_1_ULTIMATE.start_main_~y~4) 0.0))) 0.0) (= (+ (* motzkin_720_6 (- 1.0)) (* motzkin_720_12 (+ (* 1.0 lp_0_0_ULTIMATE.start___VERIFIER_assert_~cond) 0.0)) (* motzkin_720_13 (+ (* 1.0 lp_0_1_ULTIMATE.start___VERIFIER_assert_~cond) 0.0))) 0.0) (= (+ motzkin_720_9 (* motzkin_720_10 (- 1.0)) (* motzkin_720_11 (+ (* (- 1.0) lp_0_0_ULTIMATE.start_main_~y~4) 0.0))) 0.0) (<= (+ (* motzkin_720_6 (- 1.0)) (* motzkin_720_7 (- 4294967326.0)) (* motzkin_720_8 4294967326.0) (* motzkin_720_9 (- 4.0)) (* motzkin_720_10 4.0) (* motzkin_720_11 (+ (* (- 1.0) lp_0_0c) 0.0)) (* motzkin_720_12 (+ (* 1.0 lp_0_0c) 0.0)) (* motzkin_720_13 (+ (* 1.0 lp_0_1c) 0.0))) 0.0) (or (< (+ (* motzkin_720_6 (- 1.0)) (* motzkin_720_7 (- 4294967326.0)) (* motzkin_720_8 4294967326.0) (* motzkin_720_9 (- 4.0)) (* motzkin_720_10 4.0) (* motzkin_720_12 (+ (* 1.0 lp_0_0c) 0.0)) (* motzkin_720_13 (+ (* 1.0 lp_0_1c) 0.0))) 0.0) (> motzkin_720_11 0.0)) (>= motzkin_721_0 0.0) (>= motzkin_721_1 0.0) (>= motzkin_721_2 0.0) (>= motzkin_721_3 0.0) (>= motzkin_721_4 0.0) (>= motzkin_721_5 0.0) (>= motzkin_721_6 0.0) (>= motzkin_721_7 0.0) (>= motzkin_721_8 0.0) (>= motzkin_721_9 0.0) (>= motzkin_721_10 0.0) (>= motzkin_721_11 0.0) (>= motzkin_721_12 0.0) (>= motzkin_721_13 0.0) (= (+ motzkin_721_0 (* motzkin_721_5 (- 1.0)) (* motzkin_721_11 (+ (* (- 1.0) lp_0_1_ULTIMATE.start___VERIFIER_assert_~cond) 0.0))) 0.0) (= (+ (* motzkin_721_0 (- 1.0)) (* motzkin_721_1 (- 1.0)) motzkin_721_2 motzkin_721_5) 0.0) (= (+ motzkin_721_3 (* motzkin_721_4 (- 1.0)) motzkin_721_7 (* motzkin_721_8 (- 1.0)) (* motzkin_721_11 (+ (* (- 1.0) lp_0_1_ULTIMATE.start_main_~x~4) 0.0))) 0.0) (= (+ (* motzkin_721_3 (- 1.0)) motzkin_721_4 (* motzkin_721_12 (+ (* 1.0 lp_0_0_ULTIMATE.start_main_~x~4) 0.0)) (* motzkin_721_13 (+ (* 1.0 lp_0_1_ULTIMATE.start_main_~x~4) 0.0))) 0.0) (= (+ (* motzkin_721_3 (- 1.0)) motzkin_721_4 (* motzkin_721_9 (- 1.0)) motzkin_721_10 (* motzkin_721_12 (+ (* 1.0 lp_0_0_ULTIMATE.start_main_~y~4) 0.0)) (* motzkin_721_13 (+ (* 1.0 lp_0_1_ULTIMATE.start_main_~y~4) 0.0))) 0.0) (= (+ (* motzkin_721_6 (- 1.0)) (* motzkin_721_12 (+ (* 1.0 lp_0_0_ULTIMATE.start___VERIFIER_assert_~cond) 0.0)) (* motzkin_721_13 (+ (* 1.0 lp_0_1_ULTIMATE.start___VERIFIER_assert_~cond) 0.0))) 0.0) (= (+ motzkin_721_9 (* motzkin_721_10 (- 1.0)) (* motzkin_721_11 (+ (* (- 1.0) lp_0_1_ULTIMATE.start_main_~y~4) 0.0))) 0.0) (<= (+ (* motzkin_721_6 (- 1.0)) (* motzkin_721_7 (- 4294967326.0)) (* motzkin_721_8 4294967326.0) (* motzkin_721_9 (- 4.0)) (* motzkin_721_10 4.0) (* motzkin_721_11 (+ (* (- 1.0) lp_0_1c) 0.0)) (* motzkin_721_12 (+ (* 1.0 lp_0_0c) 0.0)) (* motzkin_721_13 (+ (* 1.0 lp_0_1c) 0.0))) 0.0) (or (< (+ (* motzkin_721_6 (- 1.0)) (* motzkin_721_7 (- 4294967326.0)) (* motzkin_721_8 4294967326.0) (* motzkin_721_9 (- 4.0)) (* motzkin_721_10 4.0) (* motzkin_721_12 (+ (* 1.0 lp_0_0c) 0.0)) (* motzkin_721_13 (+ (* 1.0 lp_0_1c) 0.0))) 0.0) (> motzkin_721_11 0.0))))
(declare-fun motzkin_722_0 () Real)
(declare-fun motzkin_722_1 () Real)
(declare-fun motzkin_722_2 () Real)
(declare-fun motzkin_722_3 () Real)
(assert (and (>= motzkin_722_0 0.0) (>= motzkin_722_1 0.0) (>= motzkin_722_2 0.0) (>= motzkin_722_3 0.0) (= (+ (* motzkin_722_0 (- 1.0)) motzkin_722_1 (* motzkin_722_2 (+ (* 1.0 lp_0_0_ULTIMATE.start___VERIFIER_assert_~cond) 0.0)) (* motzkin_722_3 (+ (* 1.0 lp_0_1_ULTIMATE.start___VERIFIER_assert_~cond) 0.0))) 0.0) (= (+ (* motzkin_722_2 (+ (* 1.0 lp_0_0_ULTIMATE.start_main_~y~4) 0.0)) (* motzkin_722_3 (+ (* 1.0 lp_0_1_ULTIMATE.start_main_~y~4) 0.0))) 0.0) (= (+ (* motzkin_722_2 (+ (* 1.0 lp_0_0_ULTIMATE.start_main_~x~4) 0.0)) (* motzkin_722_3 (+ (* 1.0 lp_0_1_ULTIMATE.start_main_~x~4) 0.0))) 0.0) (<= (+ (* motzkin_722_2 (+ (* 1.0 lp_0_0c) 0.0)) (* motzkin_722_3 (+ (* 1.0 lp_0_1c) 0.0))) 0.0) (or (< (+ (* motzkin_722_2 (+ (* 1.0 lp_0_0c) 0.0)) (* motzkin_722_3 (+ (* 1.0 lp_0_1c) 0.0))) 0.0) (> 0.0 0.0))))
(check-sat)
(exit)
